math/clingo/Portfile
# -*- coding: utf-8; mode: tcl; tab-width: 4; indent-tabs-mode: nil; c-basic-offset: 4 -*- vim:fenc=utf-8:ft=tcl:et:sw=4:ts=4:sts=4

PortSystem          1.0
PortGroup           github 1.0
PortGroup           cmake 1.1

github.setup        potassco clingo 5.5.0 v
categories          math
platforms           darwin
maintainers         nomaintainer
license             MIT
description         An Answer Set Programming system to ground and solve logic programs.
long_description \
    Clingo is part of the Potassco project for Answer Set Programming (ASP). \
    ASP offers a simple and powerful modeling language to describe combinatorial \
    problems as logic programs. The clingo system then takes such a logic program \
    and computes answer sets representing solutions to the given problem.

homepage            https://potassco.org/clingo/
github.tarball_from archive

checksums           rmd160  a2e622bf54b1f0f6e13f9ac7705e97b6624e5cd4 \
                    sha256  c9d7004a0caec61b636ad1c1960fbf339ef8fdee9719321fc1b6b210613a8499 \
                    size    3027366

# clingo installs its own version of clasp.
# As of now, it's just the latest release version of clasp, but I guess in theory
# a release version of clingo might require a modified non-release clasp version?
# A fancier setup probably isn't warranted for now because clasp has no dependents.
conflicts           clasp

compiler.cxx_standard   2014

# TODO: Variants for enabling the python & lua libs.
configure.args-append \
                    -DCLINGO_BUILD_WITH_PYTHON=OFF \
                    -DCLINGO_BUILD_WITH_LUA=OFF

post-destroot {
    xinstall -d -m 0755 ${destroot}${prefix}/share/doc/${name}
    xinstall -m 644 -W ${worksrcpath} CHANGES.md LICENSE.md README.md \
        ${destroot}${prefix}/share/doc/${name}

    # Install clasp readmes
    xinstall -d -m 0755 ${destroot}${prefix}/share/doc/clasp
    xinstall -m 644 -W ${worksrcpath}/clasp CHANGES LICENSE README.md \
        ${destroot}${prefix}/share/doc/clasp
}
